solution status: optimal solution found
objective value:                                    0
thingy.ctrl_collect_hole_y                         -4 	(obj:0)
thingy.ctrl_collect_hole_z                         18 	(obj:0)
$_12__1_y                                          -1 	(obj:0)
$_12__1_z                                          15 	(obj:0)
thingy.flush_collect_hole_y                        -2 	(obj:0)
thingy.flush_collect_hole_z                        15 	(obj:0)
thingy.collect_pinholes[2].hole_z                   14 	(obj:0)
thingy.collect_pinholes[0].hole_y                   -5 	(obj:0)
thingy.collect_pinholes[0].hole_z                   17 	(obj:0)
thingy.collect_pinholes[1].hole_y                   -3 	(obj:0)
thingy.collect_pinholes[1].hole_z                   14 	(obj:0)
$_15__1_y                                           9 	(obj:0)
$_15__1_z                                          18 	(obj:0)
thingy.collect_pinholes[3].hole_y                   -2 	(obj:0)
thingy.collect_pinholes[3].hole_z                   16 	(obj:0)
$_14__1_y                                          -2 	(obj:0)
$_14__1_z                                          19 	(obj:0)
$_16__1_y                                          -1 	(obj:0)
$_16__1_z                                          19 	(obj:0)
$_13__1_y                                          -2 	(obj:0)
$_13__1_z                                          24 	(obj:0)
$_11__1_y                                          -3 	(obj:0)
$_11__1_z                                          16 	(obj:0)
